32      4       
10      10      10      10      
0       0       0       0       0       10      2       4       6       7       9       10      13      14      20      31      
3       1       0       1       1       4       3       11      27      28      
3       1       1       0       6       2       5       19      
5       4       6       0       3       4       8       24      26      29      
7       4       0       4       7       3       8       24      26      
8       3       4       5       0       7       16      21      24      27      28      29      30      
7       6       4       0       4       5       15      19      23      25      28      
7       0       6       3       5       4       12      22      23      25      
8       10      0       5       2       4       17      22      23      24      
7       4       3       3       0       1       12      
4       3       4       4       0       2       17      22      
7       0       2       5       3       1       15      
10      6       0       4       4       3       21      25      27      
9       3       3       5       0       3       21      22      24      
1       2       0       5       1       1       17      
5       3       3       5       0       2       22      23      
7       5       4       0       4       1       18      
8       5       5       3       0       1       21      
1       0       5       4       5       1       21      
2       2       4       3       0       1       22      
3       0       2       6       7       1       32      
9       4       6       0       6       1       32      
4       3       2       6       0       1       32      
10      2       8       4       0       1       32      
4       0       5       6       7       1       32      
9       5       4       0       4       1       32      
8       6       0       3       1       1       32      
8       6       0       4       5       1       32      
4       3       0       2       2       1       32      
4       4       0       4       3       1       32      
4       5       3       2       0       1       32      
0       0       0       0       0       0       
